projected/problems_b25_r0_d7_m100_s666/_DIMACS/b25_d7_r0_s666_067.cnf
p cnf 184 261 25
c p show 1 2 3 4 5 6 7 8 9 10 11 12 13 14 15 16 17 18 19 20 21 22 23 24 25
-26 -2 0
-27 18 -11 0
-28 27 26 0
-29 -18 0
-29 -17 0
-30 8 16 0
-31 30 0
-31 29 0
-32 31 0
-32 28 0
-33 18 17 0
-34 -8 0
-34 -16 0
-35 34 33 0
-36 2 0
-37 -18 0
-37 11 0
-38 37 0
-38 36 0
-39 38 0
-39 35 0
-40 39 32 0
-41 -7 0
-41 -17 0
-42 -24 -16 0
-43 42 41 0
-44 -16 -15 0
-45 -5 -10 0
-46 10 5 0
-47 46 0
-47 45 0
-48 47 44 0
-49 48 43 0
-50 49 0
-50 40 0
-51 -25 0
-51 18 0
-52 1 14 0
-53 52 0
-53 51 0
-54 21 -11 0
-55 18 0
-55 4 0
-56 55 54 0
-57 56 53 0
-58 23 0
-58 -12 0
-59 12 -15 0
-60 59 0
-60 58 0
-61 -12 -17 0
-62 17 12 0
-63 62 0
-63 61 0
-64 4 17 0
-65 64 0
-65 63 0
-66 65 60 0
-67 66 57 0
-68 67 0
-68 50 0
-69 -23 -4 0
-70 25 0
-70 -16 0
-71 70 0
-71 69 0
-72 19 0
-72 -25 0
-73 7 -4 0
-74 4 -7 0
-75 74 0
-75 73 0
-76 75 72 0
-77 76 71 0
-78 4 -23 0
-79 12 0
-79 -7 0
-80 79 0
-80 78 0
-81 -8 0
-81 20 0
-82 -5 0
-82 23 0
-83 82 0
-83 81 0
-84 83 80 0
-85 84 0
-85 77 0
-86 4 14 0
-87 7 -25 0
-88 25 -7 0
-89 88 0
-89 87 0
-90 89 0
-90 86 0
-91 18 0
-91 -19 0
-92 17 0
-92 -10 0
-93 10 0
-93 -17 0
-94 93 92 0
-95 94 0
-95 91 0
-96 95 90 0
-97 -11 -22 0
-98 22 3 0
-99 98 97 0
-100 21 0
-100 14 0
-101 6 9 0
-102 101 0
-102 100 0
-103 102 99 0
-104 103 0
-104 96 0
-105 104 85 0
-106 105 0
-106 68 0
-107 -8 0
-107 25 0
-108 22 0
-108 8 0
-109 108 0
-109 107 0
-110 16 0
-110 -4 0
-111 25 0
-111 9 0
-112 111 0
-112 110 0
-113 112 0
-113 109 0
-114 -16 4 0
-115 -25 -9 0
-116 115 114 0
-117 8 -25 0
-118 -22 -8 0
-119 118 117 0
-120 119 0
-120 116 0
-121 120 113 0
-122 5 0
-122 -7 0
-123 20 0
-123 -5 0
-124 123 0
-124 122 0
-125 -22 -11 0
-126 5 0
-126 -6 0
-127 126 0
-127 125 0
-128 127 124 0
-129 128 0
-129 121 0
-130 -14 -2 0
-131 22 -24 0
-132 131 0
-132 130 0
-133 24 15 0
-134 12 24 0
-135 -24 -12 0
-136 135 0
-136 134 0
-137 136 0
-137 133 0
-138 137 0
-138 132 0
-139 -14 -19 0
-140 25 -9 0
-141 140 139 0
-142 18 0
-142 -24 0
-143 -3 0
-143 13 0
-144 143 142 0
-145 144 141 0
-146 145 138 0
-147 146 0
-147 129 0
-148 12 0
-149 24 -5 0
-150 5 -24 0
-151 150 0
-151 149 0
-152 151 0
-152 148 0
-153 -8 -10 0
-154 2 0
-154 -19 0
-155 154 0
-155 153 0
-156 155 0
-156 152 0
-157 9 0
-157 -25 0
-158 -16 0
-158 -25 0
-159 158 0
-159 157 0
-160 -9 0
-160 24 0
-161 23 0
-162 161 0
-162 160 0
-163 162 0
-163 159 0
-164 163 0
-164 156 0
-165 -12 0
-165 -19 0
-166 19 0
-166 12 0
-167 166 165 0
-168 -24 0
-168 8 0
-169 168 167 0
-170 -15 0
-170 -24 0
-171 -24 9 0
-172 171 0
-172 170 0
-173 172 169 0
-174 3 0
-174 -4 0
-175 -6 0
-175 24 0
-176 175 174 0
-177 -20 0
-177 -10 0
-178 10 0
-178 20 0
-179 178 177 0
-180 179 107 0
-181 180 0
-181 176 0
-182 181 173 0
-183 182 0
-183 164 0
-184 183 0
-184 147 0
184 0
106 0
-29 -33 0
-34 -30 0
-30 -34 0
-31 -35 0
-36 -26 0
-26 -36 0
-27 -37 0
-28 -38 0
-38 -28 0
-114 -110 0
-111 -115 0
-115 -111 0
-116 -112 0
-112 -116 0
-117 -107 0
-118 -108 0
-119 -109 0
