projected/problems_b25_r0_d7_m100_s666/b25_d7_r0_s666_067.smt2
(set-logic QF_UF)
(declare-fun A0 () Bool)
(declare-fun A1 () Bool)
(declare-fun A2 () Bool)
(declare-fun A3 () Bool)
(declare-fun A4 () Bool)
(declare-fun A5 () Bool)
(declare-fun A6 () Bool)
(declare-fun A7 () Bool)
(declare-fun A8 () Bool)
(declare-fun A9 () Bool)
(declare-fun A10 () Bool)
(declare-fun A11 () Bool)
(declare-fun A12 () Bool)
(declare-fun A13 () Bool)
(declare-fun A14 () Bool)
(declare-fun A15 () Bool)
(declare-fun A16 () Bool)
(declare-fun A17 () Bool)
(declare-fun A18 () Bool)
(declare-fun A19 () Bool)
(declare-fun A20 () Bool)
(declare-fun A21 () Bool)
(declare-fun A22 () Bool)
(declare-fun A23 () Bool)
(declare-fun A24 () Bool)
(assert (let ((.def_0 (not A16))) (let ((.def_1 (not A17))) (let ((.def_2 (and .def_1 .def_0))) (let ((.def_3 (not A15))) (let ((.def_4 (not A7))) (let ((.def_5 (and .def_4 .def_3))) (let ((.def_6 (not .def_5))) (let ((.def_7 (and .def_6 .def_2))) (let ((.def_8 (or A1 A1))) (let ((.def_9 (not .def_8))) (let ((.def_10 (not A10))) (let ((.def_11 (or A17 .def_10))) (let ((.def_12 (or .def_11 .def_9))) (let ((.def_13 (not .def_12))) (let ((.def_14 (= .def_13 .def_7))) (let ((.def_15 (not .def_14))) (let ((.def_16 (or A6 A16))) (let ((.def_17 (not .def_16))) (let ((.def_18 (not A23))) (let ((.def_19 (or .def_18 .def_3))) (let ((.def_20 (or .def_19 .def_17))) (let ((.def_21 (and A15 A14))) (let ((.def_22 (not A9))) (let ((.def_23 (= .def_22 A4))) (let ((.def_24 (not .def_23))) (let ((.def_25 (and .def_24 .def_21))) (let ((.def_26 (not .def_25))) (let ((.def_27 (or .def_26 .def_20))) (let ((.def_28 (and .def_27 .def_15))) (let ((.def_29 (or A24 .def_1))) (let ((.def_30 (or A0 A13))) (let ((.def_31 (not .def_30))) (let ((.def_32 (or .def_31 .def_29))) (let ((.def_33 (not .def_32))) (let ((.def_34 (or A20 .def_10))) (let ((.def_35 (and A17 A3))) (let ((.def_36 (or .def_35 .def_34))) (let ((.def_37 (or .def_36 .def_33))) (let ((.def_38 (not .def_37))) (let ((.def_39 (not A11))) (let ((.def_40 (and A22 .def_39))) (let ((.def_41 (and .def_39 A14))) (let ((.def_42 (not .def_41))) (let ((.def_43 (and .def_42 .def_40))) (let ((.def_44 (= .def_0 A11))) (let ((.def_45 (or A3 A16))) (let ((.def_46 (and .def_45 .def_44))) (let ((.def_47 (or .def_46 .def_43))) (let ((.def_48 (not .def_47))) (let ((.def_49 (and .def_48 .def_38))) (let ((.def_50 (not .def_49))) (let ((.def_51 (and .def_50 .def_28))) (let ((.def_52 (and A22 A3))) (let ((.def_53 (not .def_52))) (let ((.def_54 (not A24))) (let ((.def_55 (or .def_54 A15))) (let ((.def_56 (not .def_55))) (let ((.def_57 (and .def_56 .def_53))) (let ((.def_58 (and A18 .def_54))) (let ((.def_59 (not A6))) (let ((.def_60 (not A3))) (let ((.def_61 (= .def_60 .def_59))) (let ((.def_62 (or .def_61 .def_58))) (let ((.def_63 (or .def_62 .def_57))) (let ((.def_64 (not .def_63))) (let ((.def_65 (not A22))) (let ((.def_66 (or A3 .def_65))) (let ((.def_67 (not .def_66))) (let ((.def_68 (or .def_39 A6))) (let ((.def_69 (or .def_68 .def_67))) (let ((.def_70 (not .def_69))) (let ((.def_71 (and .def_4 A19))) (let ((.def_72 (not .def_71))) (let ((.def_73 (or A4 .def_65))) (let ((.def_74 (or .def_73 .def_72))) (let ((.def_75 (not .def_74))) (let ((.def_76 (or .def_75 .def_70))) (let ((.def_77 (not .def_76))) (let ((.def_78 (or .def_77 .def_64))) (let ((.def_79 (not A13))) (let ((.def_80 (and .def_60 .def_79))) (let ((.def_81 (not .def_80))) (let ((.def_82 (= .def_54 .def_59))) (let ((.def_83 (and .def_82 .def_81))) (let ((.def_84 (not .def_83))) (let ((.def_85 (not A18))) (let ((.def_86 (and A17 .def_85))) (let ((.def_87 (= A9 A16))) (let ((.def_88 (not .def_87))) (let ((.def_89 (and .def_88 .def_86))) (let ((.def_90 (not .def_89))) (let ((.def_91 (and .def_90 .def_84))) (let ((.def_92 (not .def_91))) (let ((.def_93 (and A10 A21))) (let ((.def_94 (not A2))) (let ((.def_95 (not A21))) (let ((.def_96 (and .def_95 .def_94))) (let ((.def_97 (and .def_96 .def_93))) (let ((.def_98 (not .def_97))) (let ((.def_99 (and A20 A13))) (let ((.def_100 (or A5 A8))) (let ((.def_101 (and .def_100 .def_99))) (let ((.def_102 (or .def_101 .def_98))) (let ((.def_103 (and .def_102 .def_92))) (let ((.def_104 (not .def_103))) (let ((.def_105 (and .def_104 .def_78))) (let ((.def_106 (not .def_105))) (let ((.def_107 (and .def_106 .def_51))) (let ((.def_108 (or .def_3 A3))) (let ((.def_109 (and A24 A8))) (let ((.def_110 (not .def_109))) (let ((.def_111 (or .def_110 .def_108))) (let ((.def_112 (not .def_111))) (let ((.def_113 (or A7 .def_54))) (let ((.def_114 (or .def_95 .def_4))) (let ((.def_115 (or .def_114 .def_113))) (let ((.def_116 (= .def_115 .def_112))) (let ((.def_117 (and A4 .def_59))) (let ((.def_118 (not .def_117))) (let ((.def_119 (not A4))) (let ((.def_120 (and A19 .def_119))) (let ((.def_121 (not .def_120))) (let ((.def_122 (or .def_121 .def_118))) (let ((.def_123 (and A21 A10))) (let ((.def_124 (or .def_119 A5))) (let ((.def_125 (or .def_124 .def_123))) (let ((.def_126 (and .def_125 .def_122))) (let ((.def_127 (or .def_126 .def_116))) (let ((.def_128 (not .def_127))) (let ((.def_129 (and A13 A1))) (let ((.def_130 (not .def_129))) (let ((.def_131 (and .def_95 A23))) (let ((.def_132 (not .def_131))) (let ((.def_133 (and .def_132 .def_130))) (let ((.def_134 (not .def_133))) (let ((.def_135 (or A23 A14))) (let ((.def_136 (not .def_135))) (let ((.def_137 (= A23 .def_39))) (let ((.def_138 (not .def_137))) (let ((.def_139 (or .def_138 .def_136))) (let ((.def_140 (or .def_139 .def_134))) (let ((.def_141 (not .def_140))) (let ((.def_142 (or .def_79 .def_85))) (let ((.def_143 (and .def_54 A8))) (let ((.def_144 (not .def_143))) (let ((.def_145 (or .def_144 .def_142))) (let ((.def_146 (and A17 .def_18))) (let ((.def_147 (and .def_94 A12))) (let ((.def_148 (or .def_147 .def_146))) (let ((.def_149 (or .def_148 .def_145))) (let ((.def_150 (or .def_149 .def_141))) (let ((.def_151 (and .def_150 .def_128))) (let ((.def_152 (not .def_151))) (let ((.def_153 (or .def_39 .def_39))) (let ((.def_154 (not .def_153))) (let ((.def_155 (= .def_119 .def_18))) (let ((.def_156 (and .def_155 .def_154))) (let ((.def_157 (not .def_156))) (let ((.def_158 (or .def_4 .def_22))) (let ((.def_159 (not A1))) (let ((.def_160 (or .def_159 A18))) (let ((.def_161 (not .def_160))) (let ((.def_162 (and .def_161 .def_158))) (let ((.def_163 (not .def_162))) (let ((.def_164 (or .def_163 .def_157))) (let ((.def_165 (and A8 .def_54))) (let ((.def_166 (or A15 A24))) (let ((.def_167 (not .def_166))) (let ((.def_168 (and .def_167 .def_165))) (let ((.def_169 (not .def_168))) (let ((.def_170 (not A8))) (let ((.def_171 (and .def_170 A23))) (let ((.def_172 (and .def_65 .def_65))) (let ((.def_173 (not .def_172))) (let ((.def_174 (and .def_173 .def_171))) (let ((.def_175 (not .def_174))) (let ((.def_176 (or .def_175 .def_169))) (let ((.def_177 (or .def_176 .def_164))) (let ((.def_178 (not .def_177))) (let ((.def_179 (= A18 .def_39))) (let ((.def_180 (not .def_179))) (let ((.def_181 (or A23 .def_4))) (let ((.def_182 (not .def_181))) (let ((.def_183 (or .def_182 .def_180))) (let ((.def_184 (or A14 A23))) (let ((.def_185 (not .def_184))) (let ((.def_186 (or .def_18 A8))) (let ((.def_187 (and .def_186 .def_185))) (let ((.def_188 (or .def_187 .def_183))) (let ((.def_189 (or .def_94 A3))) (let ((.def_190 (not A5))) (let ((.def_191 (and .def_190 A23))) (let ((.def_192 (not .def_191))) (let ((.def_193 (and .def_192 .def_189))) (let ((.def_194 (not .def_193))) (let ((.def_195 (not .def_113))) (let ((.def_196 (not A19))) (let ((.def_197 (= A9 .def_196))) (let ((.def_198 (not .def_197))) (let ((.def_199 (or .def_198 .def_195))) (let ((.def_200 (and .def_199 .def_194))) (let ((.def_201 (or .def_200 .def_188))) (let ((.def_202 (and .def_201 .def_178))) (let ((.def_203 (not .def_202))) (let ((.def_204 (or .def_203 .def_152))) (let ((.def_205 (not .def_204))) (let ((.def_206 (and .def_205 .def_107))) .def_206))))))))))))))))))))))))))))))))))))))))))))))))))))))))))))))))))))))))))))))))))))))))))))))))))))))))))))))))))))))))))))))))))))))))))))))))))))))))))))))))))))))))))))))))))))))))))))))))))))))))))))))))
(check-sat)
